experiments/knapsack_bounded/knapsack_bounded_10_6.mps
NAME
ROWS
 N  OBJ
 L  c1
 L  c2
 L  c3
 L  c4
 L  c5
 L  c6
 L  c7
 L  c8
 L  c9
 L  c10
 L  c11
COLUMNS
    MARKER    'MARKER'                 'INTORG'
    x[1]      c1        823
    x[1]      c2        1
    x[1]      OBJ       -692
    x[2]      c1        960
    x[2]      c3        1
    x[2]      OBJ       -196
    x[3]      c1        513
    x[3]      c4        1
    x[3]      OBJ       -896
    x[4]      c1        79
    x[4]      c5        1
    x[4]      OBJ       -258
    x[5]      c1        987
    x[5]      c6        1
    x[5]      OBJ       -663
    x[6]      c1        387
    x[6]      c7        1
    x[6]      OBJ       -341
    x[7]      c1        376
    x[7]      c8        1
    x[7]      OBJ       -901
    x[8]      c1        315
    x[8]      c9        1
    x[8]      OBJ       -233
    x[9]      c1        322
    x[9]      c10       1
    x[9]      OBJ       -863
    x[10]     c1        367
    x[10]     c11       1
    x[10]     OBJ       -761
    MARKER    'MARKER'                 'INTEND'
RHS
    rhs       c1        2564
    rhs       c2        8
    rhs       c3        7
    rhs       c4        7
    rhs       c5        9
    rhs       c6        3
    rhs       c7        2
    rhs       c8        7
    rhs       c9        7
    rhs       c10       8
    rhs       c11       7
RANGES
BOUNDS
 LO bounds    x[1]      0
 PL bounds    x[1]
 LO bounds    x[2]      0
 PL bounds    x[2]
 LO bounds    x[3]      0
 PL bounds    x[3]
 LO bounds    x[4]      0
 PL bounds    x[4]
 LO bounds    x[5]      0
 PL bounds    x[5]
 LO bounds    x[6]      0
 PL bounds    x[6]
 LO bounds    x[7]      0
 PL bounds    x[7]
 LO bounds    x[8]      0
 PL bounds    x[8]
 LO bounds    x[9]      0
 PL bounds    x[9]
 LO bounds    x[10]     0
 PL bounds    x[10]
ENDATA
